StudentsNr = 5;
InstructorsNr = 5;
DaysNr = 1;
SlotsPerDay = 12;
AvailabilitySlotsLenght = 3;
RoomNr = 2;
ProgrammNr = 1;
DegreeNr = 1;
RolesNr = 0;
CoursesNr = 2;
InstructorsProgramm = [{1}, {1}, {1}, {1}, {1}];
InstructorRolesPerProgramm = [||];
InstructorsAvailability = [|0, 1, 1, 1, |0, 1, 1, 1, |1, 1, 1, 0, |0, 0, 0, 0, |1, 1, 1, 1|];
StudentsProgramm = [1, 1, 1, 1, 1];
StudentsDegree = [1, 1, 1, 1, 1];
StudentsSupervisorId = [2, 2, 5, 1, 3];
StudentsCourseIds = [{1, 2}, {1, 2}, {1, 2}, {1, 2}, {1, 2}];
StudentsAvailability = [|0, 1, 1, 1, |0, 1, 1, 1, |0, 0, 0, 1, |1, 1, 1, 1, |1, 1, 0, 1|];
TheoryticalMinCard = [2, 2, 2, 3, 2];
CoursesInstructorIds = [{2, 5}, {3}];
RolesDemands = [];
RolesContinuity = [];
ExamLen = [1, 1, 1, 1, 1];
LunchTsMinLen = 2;
LunchStarts = [6..7];
SupervisorAvailable = 5;
OptimalLunchLenght = [2, 2];
OptimalStartTs = [1, 2];
OptimalFinishTs = [1, 11];
MinimizeRooms = 300;
RolesSoftContinuity = [|||];
SameDegreeInRoom = 0;
Mergeability = 1;
